data/solutions/recovery/degenerate/intermediate/binding/degenerate_intermediate_instance38/72.sol
Elapsed time: 0.07
Upper bound: 296313.0
Planning weighted value: 15629884217.0
C[0]=296313.0
C[1]=295958.0
C[2]=295501.0
C[3]=295219.0
C[4]=294888.0
C[5]=294869.0
C[6]=293533.0
C[7]=292899.0
C[8]=291083.0
C[9]=288154.0
C[10]=284155.0
C[11]=282324.0
C[12]=279522.0
C[13]=0.0
C[14]=0.0
C[15]=0.0
y[0]=12
y[1]=9
y[2]=6
y[3]=1
y[4]=1
y[5]=8
y[6]=9
y[7]=12
y[8]=1
y[9]=3
y[10]=1
y[11]=4
y[12]=8
y[13]=8
y[14]=12
y[15]=10
y[16]=12
y[17]=11
y[18]=7
y[19]=0
y[20]=3
y[21]=3
y[22]=4
y[23]=2
y[24]=3
y[25]=9
y[26]=7
y[27]=5
y[28]=0
y[29]=12
y[30]=4
y[31]=11
y[32]=10
y[33]=11
y[34]=11
y[35]=6
y[36]=8
y[37]=1
y[38]=7
y[39]=10
y[40]=2
y[41]=6
y[42]=2
y[43]=0
y[44]=4
y[45]=9
y[46]=1
y[47]=9
y[48]=6
y[49]=3
y[50]=11
y[51]=3
y[52]=6
y[53]=11
y[54]=2
y[55]=5
y[56]=0
y[57]=2
y[58]=5
y[59]=8
y[60]=7
y[61]=0
y[62]=10
y[63]=5
y[64]=8
y[65]=7
